solution status: optimal solution found
objective value:                                    3
C46                                                 1 	(obj:1)
C39                                                 1 	(obj:1)
C32                                                 1 	(obj:1)
C82                                                 1 	(obj:0)
C146                                                1 	(obj:0)
C182                                                1 	(obj:0)
C232                                                1 	(obj:0)
C282                                                1 	(obj:0)
C339                                                1 	(obj:0)
C389                                                1 	(obj:0)
C439                                                1 	(obj:0)
C489                                                1 	(obj:0)
C539                                                1 	(obj:0)
C589                                                1 	(obj:0)
C639                                                1 	(obj:0)
C696                                                1 	(obj:0)
C732                                                1 	(obj:0)
C796                                                1 	(obj:0)
C832                                                1 	(obj:0)
C896                                                1 	(obj:0)
C946                                                1 	(obj:0)
C996                                                1 	(obj:0)
C1032                                               1 	(obj:0)
C1089                                               1 	(obj:0)
C1139                                               1 	(obj:0)
C1189                                               1 	(obj:0)
C1239                                               1 	(obj:0)
C1289                                               1 	(obj:0)
C1339                                               1 	(obj:0)
C1389                                               1 	(obj:0)
C1446                                               1 	(obj:0)
C1482                                               1 	(obj:0)
C1496                                               1 	(obj:0)
C1546                                               1 	(obj:0)
C1596                                               1 	(obj:0)
C1632                                               1 	(obj:0)
C1682                                               1 	(obj:0)
C1696                                               1 	(obj:0)
C1746                                               1 	(obj:0)
C1782                                               1 	(obj:0)
C1839                                               1 	(obj:0)
C1889                                               1 	(obj:0)
C1939                                               1 	(obj:0)
C1989                                               1 	(obj:0)
C2039                                               1 	(obj:0)
C2089                               0.999999999999999 	(obj:0)
C2146                               0.999999999999999 	(obj:0)
C2196                                               1 	(obj:0)
C2232                                               1 	(obj:0)
C2246                                               1 	(obj:0)
C2296                                               1 	(obj:0)
C2332                                               1 	(obj:0)
C2382                                               1 	(obj:0)
C2432                                               1 	(obj:0)
C2482                                               1 	(obj:0)
C2496                                               1 	(obj:0)
C2532                                               1 	(obj:0)
